20
2 0 4
3 0 1
4 0 9
4 1 13
4 3 9
5 0 8
5 2 4
5 3 10
5 4 9
6 5 7
7 0 5
7 4 3
7 5 1
8 1 4
8 3 6
8 7 15
9 0 1
9 1 12
9 2 11
9 6 7
9 8 10
10 0 1
10 1 10
10 4 14
10 9 10
11 2 7
11 3 3
11 6 12
11 7 11
11 8 1
12 1 9
12 2 13
12 3 15
12 4 3
12 5 13
12 7 10
12 8 15
12 10 8
13 3 10
13 5 11
13 6 12
13 7 8
13 9 9
13 10 8
13 11 8
14 0 3
14 5 3
14 7 13
14 8 8
14 9 2
14 10 12
14 11 15
15 1 7
15 6 10
15 7 4
15 8 4
15 11 9
15 13 14
15 14 13
16 1 15
16 3 2
16 8 7
16 10 8
16 11 14
16 12 7
16 14 1
17 8 3
17 9 10
17 10 6
17 13 13
17 14 3
17 15 14
17 16 10
18 0 11
18 1 4
18 2 5
18 3 15
18 6 10
18 7 11
18 13 1
18 14 13
18 16 12
18 17 7
19 4 14
19 10 12
19 13 3
19 14 4
